p wcnf 180 360 361 
1 -105 -80 0 
1 -28 90 0 
1 -151 -180 0 
1 138 13 0 
1 167 93 0 
1 -39 -168 0 
1 -52 -27 0 
1 -63 -116 0 
1 -12 -139 0 
1 121 -16 0 
1 -77 -99 0 
1 -151 174 0 
1 29 1 0 
1 33 -175 0 
1 -170 -32 0 
1 -107 -31 0 
1 167 -31 0 
1 -19 78 0 
1 -171 -7 0 
1 51 134 0 
1 -161 -132 0 
1 -11 126 0 
1 113 57 0 
1 17 69 0 
1 153 98 0 
1 -117 -74 0 
1 -49 140 0 
1 -137 -16 0 
1 108 -156 0 
1 -50 46 0 
1 -43 -152 0 
1 -46 149 0 
1 146 -143 0 
1 -82 -53 0 
1 24 112 0 
1 -166 -135 0 
1 -128 -29 0 
1 112 114 0 
1 143 107 0 
1 168 -7 0 
1 88 -33 0 
1 -69 177 0 
1 6 45 0 
1 110 -176 0 
1 38 59 0 
1 -129 163 0 
1 57 -147 0 
1 46 -125 0 
1 77 126 0 
1 -76 38 0 
1 -65 -155 0 
1 -2 -65 0 
1 27 98 0 
1 129 128 0 
1 -152 -110 0 
1 10 -166 0 
1 179 -124 0 
1 177 -133 0 
1 88 117 0 
1 -12 146 0 
1 -82 4 0 
1 15 -154 0 
1 -30 131 0 
1 -93 -46 0 
1 134 -97 0 
1 172 84 0 
1 159 -28 0 
1 147 -117 0 
1 46 36 0 
1 84 159 0 
1 66 26 0 
1 -118 162 0 
1 18 -142 0 
1 134 -6 0 
1 110 46 0 
1 153 116 0 
1 39 -72 0 
1 -161 119 0 
1 153 95 0 
1 -56 -119 0 
1 87 85 0 
1 -115 -90 0 
1 -43 50 0 
1 133 26 0 
1 99 154 0 
1 -63 -33 0 
1 -159 77 0 
1 135 24 0 
1 -155 -60 0 
1 -180 116 0 
1 -108 117 0 
1 179 -107 0 
1 165 -11 0 
1 65 -169 0 
1 57 -50 0 
1 -55 -72 0 
1 152 82 0 
1 -84 -105 0 
1 -157 -179 0 
1 -155 73 0 
1 -30 -118 0 
1 16 -40 0 
1 -28 -77 0 
1 -66 -156 0 
1 -156 -72 0 
1 58 -68 0 
1 -44 124 0 
1 -5 -106 0 
1 -28 136 0 
1 8 104 0 
1 39 125 0 
1 112 145 0 
1 51 177 0 
1 2 93 0 
1 -99 -175 0 
1 51 94 0 
1 28 169 0 
1 162 -49 0 
1 65 -149 0 
1 -115 -48 0 
1 -130 -9 0 
1 35 -28 0 
1 163 50 0 
1 16 14 0 
1 17 175 0 
1 -37 -169 0 
1 52 133 0 
1 -104 -110 0 
1 -3 11 0 
1 38 77 0 
1 -26 169 0 
1 53 -78 0 
1 -45 -40 0 
1 -56 102 0 
1 -32 -80 0 
1 -119 70 0 
1 -61 -63 0 
1 25 -125 0 
1 -103 -118 0 
1 -166 132 0 
1 66 159 0 
1 -38 -14 0 
1 32 -179 0 
1 -95 -80 0 
1 -52 -166 0 
1 -11 -2 0 
1 115 176 0 
1 -152 75 0 
1 -38 135 0 
1 -55 76 0 
1 110 -143 0 
1 -72 167 0 
1 120 -115 0 
1 -64 -92 0 
1 -92 104 0 
1 11 149 0 
1 -160 -69 0 
1 -82 -29 0 
1 72 -143 0 
1 -10 4 0 
1 18 -133 0 
1 -1 18 0 
1 99 110 0 
1 -44 -27 0 
1 -23 36 0 
1 -80 138 0 
1 153 -4 0 
1 116 112 0 
1 -90 -113 0 
1 74 -52 0 
1 45 -47 0 
1 36 -172 0 
1 -80 162 0 
1 -107 -136 0 
1 21 146 0 
1 -116 162 0 
1 143 176 0 
1 84 176 0 
1 -25 -131 0 
1 -40 22 0 
1 89 -14 0 
1 -124 170 0 
1 -53 -128 0 
1 143 140 0 
1 -172 101 0 
1 -90 -78 0 
1 -94 26 0 
1 -26 -142 0 
1 -37 141 0 
1 141 -42 0 
1 -151 -168 0 
1 4 -158 0 
1 -30 98 0 
1 -87 -130 0 
1 100 156 0 
1 117 33 0 
1 -70 -31 0 
1 -118 102 0 
1 138 -2 0 
1 -141 8 0 
1 -148 -15 0 
1 -166 18 0 
1 -53 88 0 
1 48 -77 0 
1 -82 -19 0 
1 -156 147 0 
1 -158 -104 0 
1 157 -10 0 
1 -83 -170 0 
1 83 121 0 
1 91 67 0 
1 80 -31 0 
1 -42 -137 0 
1 -165 -93 0 
1 -65 -119 0 
1 162 -3 0 
1 35 54 0 
1 40 -60 0 
1 122 54 0 
1 -125 -16 0 
1 -152 54 0 
1 -143 -35 0 
1 38 109 0 
1 114 -16 0 
1 114 -122 0 
1 -11 -9 0 
1 -47 -51 0 
1 60 -108 0 
1 -17 -123 0 
1 165 135 0 
1 -110 -144 0 
1 -87 -119 0 
1 133 -51 0 
1 -8 -11 0 
1 50 148 0 
1 -172 -64 0 
1 -108 -125 0 
1 77 141 0 
1 -2 -72 0 
1 125 166 0 
1 152 5 0 
1 -63 -6 0 
1 84 -36 0 
1 -64 -22 0 
1 164 134 0 
1 35 140 0 
1 -44 -173 0 
1 -40 31 0 
1 -114 -18 0 
1 -102 -33 0 
1 -70 141 0 
1 175 -74 0 
1 32 37 0 
1 -75 126 0 
1 -109 -18 0 
1 -121 -5 0 
1 106 -26 0 
1 -119 -138 0 
1 -2 -85 0 
1 -106 -36 0 
1 -5 -172 0 
1 -146 62 0 
1 -61 -160 0 
1 -155 -121 0 
1 -176 169 0 
1 40 -97 0 
1 -85 4 0 
1 48 139 0 
1 -77 -49 0 
1 -142 47 0 
1 32 -111 0 
1 171 -87 0 
1 -128 -5 0 
1 -154 98 0 
1 -41 -132 0 
1 70 88 0 
1 178 -47 0 
1 171 173 0 
1 -122 -124 0 
1 -146 -64 0 
1 12 15 0 
1 10 78 0 
1 168 60 0 
1 76 -15 0 
1 -94 -80 0 
1 -32 111 0 
1 -128 133 0 
1 51 130 0 
1 146 -41 0 
1 114 113 0 
1 10 81 0 
1 -128 103 0 
1 -5 -30 0 
1 70 -173 0 
1 147 -65 0 
1 -139 67 0 
1 21 -107 0 
1 161 172 0 
1 177 -171 0 
1 -13 87 0 
1 -84 67 0 
1 -95 23 0 
1 178 173 0 
1 154 -6 0 
1 176 -67 0 
1 36 84 0 
1 -88 82 0 
1 -23 139 0 
1 116 -82 0 
1 -104 -168 0 
1 84 66 0 
1 5 -171 0 
1 -73 22 0 
1 -63 -9 0 
1 -121 -125 0 
1 -44 -52 0 
1 161 87 0 
1 -131 -161 0 
1 173 27 0 
1 154 -12 0 
1 -89 20 0 
1 -114 24 0 
1 -160 44 0 
1 90 138 0 
1 -142 165 0 
1 32 -22 0 
1 -16 58 0 
1 -162 -145 0 
1 -157 47 0 
1 -9 -130 0 
1 -126 108 0 
1 -141 -5 0 
1 -25 -52 0 
1 3 -115 0 
1 -55 -67 0 
1 -44 168 0 
1 -160 -40 0 
1 35 -51 0 
1 54 105 0 
1 -58 163 0 
1 134 75 0 
1 130 46 0 
1 87 -123 0 
1 -42 -169 0 
1 -78 -44 0 
1 19 -88 0 
1 126 -102 0 
1 -93 -6 0 
1 119 -86 0 
1 35 -174 0 
1 147 -107 0 
1 -171 -176 0 
1 87 1 0 
1 -101 -54 0 
1 -128 106 0 
1 172 -50 0 
1 -103 83 0 
1 -1 -144 0 
1 -155 -62 0 
1 164 -5 0 
